Version identifier: 22.1.1.0 | 2022-11-28 | 9160aff4d
CPXPARAM_ClockType                               1
CPXPARAM_Read_DataCheck                          1
CPXPARAM_Threads                                 1
CPXPARAM_TimeLimit                               7200
CPXPARAM_MIP_Tolerances_AbsMIPGap                0
CPXPARAM_MIP_Tolerances_MIPGap                   0
CPXPARAM_MIP_Tolerances_Integrality              0
Tried aggregator 5 times.
MIP Presolve eliminated 23036 rows and 7360 columns.
MIP Presolve modified 692 coefficients.
Aggregator did 3520 substitutions.
Reduced MIP has 69237 rows, 30415 columns, and 239110 nonzeros.
Reduced MIP has 30415 binaries, 0 generals, 0 SOSs, and 0 indicators.
Presolve time = 0.65 sec. (352.09 ticks)
Probing fixed 267 vars, tightened 0 bounds.
Probing time = 0.94 sec. (221.54 ticks)
Tried aggregator 2 times.
Detecting symmetries...
MIP Presolve eliminated 1671 rows and 467 columns.
MIP Presolve modified 310 coefficients.
Aggregator did 108 substitutions.
Reduced MIP has 67458 rows, 29840 columns, and 233381 nonzeros.
Reduced MIP has 29840 binaries, 0 generals, 0 SOSs, and 0 indicators.
Presolve time = 0.69 sec. (346.79 ticks)
Probing time = 0.04 sec. (10.16 ticks)
Clique table members: 140623.
MIP emphasis: balance optimality and feasibility.
MIP search method: dynamic search.
Parallel mode: none, using 1 thread.
Root relaxation solution time = 91.18 sec. (28377.92 ticks)

        Nodes                                         Cuts/
   Node  Left     Objective  IInf  Best Integer    Best Bound    ItCnt     Gap

      0     0    12232.0000  9293                  12232.0000    60406         
      0     0    11992.9866  9379                  Cuts: 2625   120624         
      0     0    11869.0996 10326                  Cuts: 2705   184310         
      0     0    11797.0131 10378                  Cuts: 2745   245327         
      0     0    11745.4861 10688                  Cuts: 2953   313321         
      0     0    11711.5094 10734                  Cuts: 2790   382457         
      0     0    11680.4225 10909                  Cuts: 3132   463663         
      0     0    11645.5956 10908                  Cuts: 2951   555738         
      0     0    11612.0014 11184                  Cuts: 3054   632358         
      0     0    11560.9336 10996                  Cuts: 3257   745058         
      0     0    11528.3506 11032                  Cuts: 3059   871510         
      0     0    11501.6371 10515                  Cuts: 2690  1003726         
      0     0    11489.8293 10351                  Cuts: 2450  1088456         
      0     0    11482.9229 10912                  Cuts: 2174  1177904         
      0     0    11475.6934 10896                  Cuts: 2080  1325289         
      0     0    11468.4360 10358                  Cuts: 2262  1456712         
      0     0    11462.2474 11084                  Cuts: 2454  1556970         

Clique cuts applied:  121
Implied bound cuts applied:  2283
Zero-half cuts applied:  4198
Lift and project cuts applied:  3
Gomory fractional cuts applied:  2

Root node processing (before b&c):
  Real time             = 7200.06 sec. (3084883.47 ticks)
Sequential b&c:
  Real time             =    0.00 sec. (0.00 ticks)
                          ------------
Total (root+branch&cut) = 7200.06 sec. (3084883.47 ticks)
Solution is infeasible.

---------------------
@@@ MIP_time_limit_infeasible
Traceback (most recent call last):
  File "/scratch/scherif/DiverseSAT-journal_sup/DiverseSAT_Supplementary_Experiments/experiment-1/cplex/jobs/../solvers/CPLEX-DW-SE.py", line 104, in <module>
    print(f">>> Benchmark {os.path.basename(cnf_file)} k {k} OPT {int(prob.solution.get_objective_value())}"
  File "/users/scherif/.local/lib/python3.9/site-packages/cplex/_internal/_subinterfaces.py", line 7211, in get_objective_value
    return CPX_PROC.getobjval(self._env._e, self._cplex._lp)
  File "/users/scherif/.local/lib/python3.9/site-packages/cplex/_internal/_procedural.py", line 2055, in getobjval
    check_status(env, status)
  File "/users/scherif/.local/lib/python3.9/site-packages/cplex/_internal/_procedural.py", line 249, in __call__
    raise CplexSolverError(error_string, env, status)
cplex.exceptions.errors.CplexSolverError: CPLEX Error  1217: No solution exists.
